Opti/data.lp
max: 428P1 + 468P2 + 447P3 + 424P4 + 418P5 + 383P6 + 381P7 + 442P8 + 436P9 + 355P10 + 500P11 + 445P12 + 348P13 + 472P14 + 461P15 + 399P16 + 428P17 + 369P18 + 365P19 + 441P20 + 420P21 + 310P22 + 374P23 + 526P24 + 429P25 + 438P26 + 321P27 + 447P28 + 351P29 + 486P30;
20P1 + 28P2 + 29P3 + 30P4 + 15P5 + 24P6 + 23P7 + 16P8 + 28P9 + 29P10 + 27P11 + 30P12 + 29P13 + 13P14 + 28P15 + 22P16 + 23P17 + 10P18 + 21P19 + 15P20 + 28P21 + 11P22 + 21P23 + 19P24 + 28P25 + 28P26 + 12P27 + 16P28 + 10P29 + 20P30 <= 1000;
12P1 + 15P2 + 27P3 + 23P4 + 30P5 + 16P6 + 17P7 + 29P8 + 12P9 + 30P10 + 22P11 + 25P12 + 25P13 + 16P14 + 17P15 + 27P16 + 21P17 + 23P18 + 26P19 + 17P20 + 29P21 + 10P22 + 18P23 + 23P24 + 15P25 + 26P26 + 11P27 + 19P28 + 14P29 + 18P30 <= 1000;
26P1 + 26P2 + 26P3 + 14P4 + 10P5 + 15P6 + 17P7 + 15P8 + 25P9 + 24P10 + 25P11 + 13P12 + 19P13 + 15P14 + 12P15 + 26P16 + 24P17 + 27P18 + 19P19 + 11P20 + 24P21 + 12P22 + 24P23 + 29P24 + 23P25 + 28P26 + 12P27 + 27P28 + 16P29 + 19P30 <= 1000;
17P1 + 14P2 + 20P3 + 15P4 + 29P5 + 15P6 + 21P7 + 22P8 + 15P9 + 11P10 + 29P11 + 19P12 + 20P13 + 26P14 + 16P15 + 26P16 + 14P17 + 18P18 + 26P19 + 26P20 + 20P21 + 18P22 + 12P23 + 25P24 + 11P25 + 13P26 + 12P27 + 26P28 + 16P29 + 29P30 <= 1000;
18P1 + 28P2 + 26P3 + 16P4 + 23P5 + 10P6 + 13P7 + 27P8 + 19P9 + 10P10 + 12P11 + 30P12 + 10P13 + 20P14 + 23P15 + 13P16 + 15P17 + 18P18 + 11P19 + 19P20 + 20P21 + 19P22 + 11P23 + 30P24 + 28P25 + 28P26 + 17P27 + 12P28 + 13P29 + 29P30 <= 1000;
23P1 + 21P2 + 11P3 + 26P4 + 12P5 + 27P6 + 19P7 + 15P8 + 24P9 + 15P10 + 28P11 + 15P12 + 12P13 + 28P14 + 29P15 + 11P16 + 25P17 + 10P18 + 11P19 + 25P20 + 12P21 + 11P22 + 22P23 + 19P24 + 18P25 + 12P26 + 18P27 + 23P28 + 21P29 + 17P30 <= 1000;
