Opti/TP-lpsolve/data/data.txt
6 30
1000 1000 1000 1000 1000 1000
P1 20 12 26 17 18 23 428
P2 28 15 26 14 28 21 468
P3 29 27 26 20 26 11 447
P4 30 23 14 15 16 26 424
P5 15 30 10 29 23 12 418
P6 24 16 15 15 10 27 383
P7 23 17 17 21 13 19 381
P8 16 29 15 22 27 15 442
P9 28 12 25 15 19 24 436
P10 29 30 24 11 10 15 355
P11 27 22 25 29 12 28 500
P12 30 25 13 19 30 15 445
P13 29 25 19 20 10 12 348
P14 13 16 15 26 20 28 472
P15 28 17 12 16 23 29 461
P16 22 27 26 26 13 11 399
P17 23 21 24 14 15 25 428
P18 10 23 27 18 18 10 369
P19 21 26 19 26 11 11 365
P20 15 17 11 26 19 25 441
P21 28 29 24 20 20 12 420
P22 11 10 12 18 19 11 310
P23 21 18 24 12 11 22 374
P24 19 23 29 25 30 19 526
P25 28 15 23 11 28 18 429
P26 28 26 28 13 28 12 438
P27 12 11 12 12 17 18 321
P28 16 19 27 26 12 23 447
P29 10 14 16 16 13 21 351
P30 20 18 19 29 29 17 486
